set of int: V = 1..7;
set of int: A = 1..7;

set of int: NODES = 1..7;
set of int: USERS = 1..7;

% Max capacity per Node
capacity = [1, 2, 1, 1, 2, 4, 3];

% Delay on links between nodes
delay = array2d(NODES, NODES, [
  0, 2, 3, 4, 5, 5, 3,
  2, 0, 4, 1, 3, 2, 1,
  3, 4, 0, 2, 1, 3, 2,
  4, 1, 2, 0, 3, 4, 1,
  5, 3, 1, 3, 0, 5, 3,
  5, 2, 3, 4, 5, 0, 2,
  3, 1, 2, 1, 3, 2, 0
]);


% Transmission cost
transmission_cost = array2d(NODES, NODES, [
  0, 2, 3, 4, 5, 5, 3,
  2, 0, 4, 1, 3, 2, 1,
  3, 4, 0, 2, 1, 3, 2,
  4, 1, 2, 0, 3, 4, 1,
  5, 3, 1, 3, 0, 5, 3,
  5, 2, 3, 4, 5, 0, 2,
  3, 1, 2, 1, 3, 2, 0
]);

Request_Array = [1,1,1,1,1,1,1];

Max_Delay_For_App = 12;
